c "467281.clq"
p edge 142 552
e 1 5
e 1 6
e 1 7
e 1 8
e 1 11
e 1 23
e 1 27
e 1 28
e 1 48
e 1 64
e 1 74
e 1 75
e 1 125
e 2 5
e 2 8
e 2 9
e 2 11
e 2 14
e 2 42
e 2 66
e 2 71
e 2 122
e 3 5
e 3 6
e 3 12
e 3 15
e 3 16
e 3 19
e 3 22
e 3 31
e 3 33
e 3 36
e 3 83
e 3 93
e 3 103
e 3 118
e 3 123
e 4 5
e 4 6
e 4 7
e 4 11
e 4 21
e 4 41
e 4 66
e 4 71
e 4 101
e 4 110
e 5 6
e 5 7
e 5 8
e 5 9
e 5 10
e 5 12
e 5 13
e 5 14
e 5 15
e 5 17
e 5 18
e 5 20
e 5 23
e 5 24
e 5 25
e 5 28
e 5 29
e 5 30
e 5 34
e 5 35
e 5 41
e 5 44
e 5 46
e 5 47
e 5 48
e 5 50
e 5 53
e 5 59
e 5 60
e 5 62
e 5 63
e 5 67
e 5 68
e 5 70
e 5 79
e 5 82
e 5 89
e 5 92
e 5 93
e 5 98
e 5 110
e 5 111
e 5 118
e 5 126
e 5 131
e 5 134
e 5 137
e 5 139
e 6 7
e 6 8
e 6 9
e 6 10
e 6 11
e 6 12
e 6 13
e 6 16
e 6 18
e 6 19
e 6 21
e 6 22
e 6 23
e 6 24
e 6 26
e 6 31
e 6 34
e 6 39
e 6 42
e 6 48
e 6 60
e 6 62
e 6 69
e 6 85
e 6 87
e 6 92
e 6 104
e 6 108
e 6 115
e 6 123
e 6 125
e 6 132
e 6 135
e 7 10
e 7 15
e 7 16
e 7 21
e 7 26
e 7 27
e 7 29
e 7 38
e 7 51
e 7 56
e 7 57
e 7 63
e 7 64
e 7 66
e 7 104
e 8 9
e 8 12
e 8 13
e 8 17
e 8 19
e 8 24
e 8 30
e 8 37
e 8 40
e 8 43
e 8 51
e 8 58
e 8 59
e 8 62
e 8 67
e 8 71
e 8 72
e 8 87
e 8 100
e 8 102
e 8 105
e 8 107
e 8 109
e 8 111
e 8 135
e 9 10
e 9 13
e 9 23
e 9 29
e 9 32
e 9 42
e 9 55
e 9 63
e 9 65
e 9 72
e 9 77
e 9 79
e 9 84
e 9 97
e 9 107
e 9 119
e 9 120
e 9 122
e 9 128
e 9 131
e 9 134
e 9 140
e 10 14
e 10 16
e 10 17
e 10 19
e 10 25
e 10 37
e 10 43
e 10 52
e 10 54
e 10 67
e 10 78
e 10 83
e 10 93
e 10 94
e 10 136
e 11 14
e 11 18
e 11 20
e 11 22
e 11 27
e 11 35
e 11 36
e 11 46
e 11 52
e 11 57
e 11 70
e 11 82
e 11 139
e 12 15
e 12 20
e 12 22
e 12 26
e 12 29
e 12 31
e 12 35
e 12 36
e 12 45
e 12 53
e 12 61
e 12 70
e 12 75
e 12 77
e 12 85
e 12 96
e 12 97
e 12 99
e 12 102
e 12 108
e 12 109
e 12 112
e 12 117
e 12 119
e 12 127
e 12 130
e 12 131
e 12 133
e 12 135
e 13 17
e 13 18
e 13 30
e 13 34
e 13 37
e 13 39
e 13 46
e 13 49
e 13 50
e 13 54
e 13 58
e 13 60
e 13 91
e 13 92
e 13 100
e 14 26
e 14 32
e 14 33
e 14 61
e 14 65
e 14 106
e 14 116
e 15 45
e 16 24
e 16 30
e 16 44
e 16 73
e 16 88
e 16 110
e 17 25
e 17 28
e 17 56
e 17 88
e 17 102
e 17 112
e 17 118
e 18 20
e 18 28
e 18 38
e 18 115
e 18 117
e 18 133
e 18 141
e 19 31
e 19 65
e 19 66
e 19 99
e 19 103
e 19 107
e 20 21
e 20 25
e 20 45
e 20 48
e 20 49
e 20 52
e 20 59
e 20 76
e 20 82
e 20 142
e 21 45
e 21 55
e 21 132
e 22 32
e 22 33
e 22 36
e 22 38
e 22 40
e 22 41
e 22 43
e 22 49
e 22 67
e 22 80
e 22 81
e 22 84
e 22 90
e 22 130
e 23 100
e 24 42
e 24 47
e 24 51
e 24 63
e 24 78
e 24 83
e 24 90
e 24 118
e 24 124
e 24 136
e 24 142
e 25 39
e 25 81
e 25 117
e 25 120
e 26 27
e 26 32
e 26 35
e 26 37
e 26 54
e 26 58
e 26 61
e 26 75
e 26 79
e 26 89
e 26 95
e 26 98
e 26 105
e 26 108
e 26 109
e 26 116
e 26 119
e 27 47
e 27 86
e 27 114
e 28 64
e 28 86
e 29 33
e 29 46
e 29 50
e 29 72
e 29 73
e 29 77
e 29 79
e 29 109
e 29 111
e 29 115
e 29 121
e 30 38
e 30 83
e 30 121
e 30 123
e 30 126
e 31 61
e 31 125
e 31 133
e 32 53
e 32 91
e 32 94
e 32 98
e 32 120
e 33 34
e 33 39
e 33 49
e 33 84
e 33 113
e 34 40
e 34 52
e 34 56
e 34 69
e 34 141
e 35 41
e 36 55
e 36 69
e 36 85
e 36 93
e 37 40
e 37 44
e 37 56
e 37 57
e 37 76
e 37 89
e 37 126
e 38 51
e 38 81
e 38 85
e 38 139
e 39 50
e 39 55
e 39 68
e 39 78
e 39 86
e 39 91
e 39 100
e 39 115
e 39 122
e 39 126
e 39 127
e 39 129
e 40 43
e 40 112
e 40 113
e 40 128
e 41 69
e 41 121
e 42 58
e 42 74
e 42 88
e 42 90
e 43 44
e 43 54
e 43 60
e 43 71
e 43 73
e 43 78
e 43 112
e 43 114
e 44 65
e 44 103
e 45 53
e 45 134
e 45 140
e 46 47
e 46 123
e 47 59
e 47 101
e 48 75
e 48 80
e 48 101
e 48 127
e 48 129
e 49 88
e 49 136
e 50 140
e 51 57
e 51 77
e 51 80
e 52 68
e 52 70
e 52 74
e 53 68
e 53 74
e 54 99
e 54 104
e 54 113
e 54 137
e 55 72
e 57 94
e 57 95
e 57 104
e 57 135
e 58 98
e 59 84
e 59 142
e 60 117
e 60 124
e 60 127
e 61 62
e 61 73
e 61 76
e 61 80
e 61 97
e 63 64
e 64 82
e 64 92
e 64 95
e 64 106
e 65 86
e 66 116
e 67 113
e 67 130
e 68 89
e 68 99
e 68 114
e 69 111
e 70 76
e 70 96
e 70 107
e 70 131
e 71 81
e 73 91
e 73 96
e 74 136
e 74 140
e 77 121
e 77 129
e 77 142
e 78 96
e 78 106
e 80 87
e 81 87
e 81 138
e 82 103
e 82 128
e 83 90
e 83 114
e 83 124
e 84 97
e 84 120
e 85 105
e 85 138
e 86 106
e 87 128
e 88 108
e 90 132
e 91 119
e 91 124
e 92 102
e 92 141
e 93 94
e 93 105
e 94 95
e 94 133
e 95 141
e 100 101
e 103 122
e 103 130
e 106 125
e 108 110
e 111 116
e 112 129
e 112 138
e 115 139
e 122 138
e 125 137
e 127 137
e 130 132
e 132 134
